
  32    1
  10

   0   0   5 2 3 4 5 6 
   2   3   4 10 9 8 7 
   4   5   4 11 10 8 7 
   9   3   2 11 7 
   1  10   2 10 7 
   4   7   2 11 10 
   2  10   3 14 13 12 
   6   5   3 14 13 12 
  10   5   2 13 11 
   7   7   2 13 12 
   1   2   2 17 14 
   9   8   3 18 17 15 
   7   7   4 21 19 18 16 
   3  10   3 18 16 15 
   4   6   3 31 22 20 
   9   1   4 31 26 23 22 
   4   6   3 26 24 19 
  10   6   3 31 23 22 
   6  10   2 31 23 
   5   7   2 26 23 
   4   5   2 26 23 
   9   4   2 28 24 
   4   9   3 29 28 25 
  10   7   2 30 25 
   9   4   1 27 
   5   5   1 28 
   3   8   1 32
   4   6   1 32
  10   7   1 32
   2   2   1 32
   4   5   1 32
   0   0   0 
